(declare-const x0 Bool)
(declare-const x1 Bool)
(declare-const x2 Bool)
(declare-const x3 Bool)
(declare-const x4 Bool)
(declare-const x5 Bool)
(declare-const x6 Bool)
(declare-const x7 Bool)
(declare-const x8 Bool)
(declare-const x9 Bool)
(declare-const x10 Bool)
(declare-const x11 Bool)
(declare-const x12 Bool)
(declare-const x13 Bool)
(declare-const x14 Bool)
(declare-const x15 Bool)
(declare-const x16 Bool)
(declare-const x17 Bool)
(declare-const x18 Bool)
(declare-const x19 Bool)
(declare-const x20 Bool)
(declare-const x21 Bool)
(assert (= true false))
(assert (and (and false false) x10))
(assert (= false (= (and true x9) (or false x1))))
(assert (and (and (and x10 x0) (= false false)) (or (and (and true false) x14) (or (= (and x6 false) (= false x6)) x3))))
(assert (= (= (and x18 x8) x13) (= true (= x2 true))))
(assert (= (or (or (= true true) true) (and false (or true false))) (= (= true false) (= false x13))))
(assert x11)
(assert (and (or (and x2 true) (and true true)) (or (= x14 x12) (and (and x7 x20) (= x4 (= x1 x9))))))
(assert (or (= (= (and x11 x12) (or x0 x11)) false) (= (= (= x13 x5) (or x7 true)) (and false x6))))
(assert (or true true))
(check-sat)
